tsp_instances/TSP50/instance3.tsp
NODE_COORD_SECTION
0 129 38
1 52 184
2 156 27
3 40 186
4 170 63
5 99 25
6 113 166
7 37 117
8 41 0
9 138 124
10 151 59
11 27 52
12 56 162
13 54 4
14 148 51
15 20 116
16 135 71
17 78 61
18 119 112
19 142 112
20 180 69
21 92 32
22 117 60
23 14 154
24 164 36
25 155 155
26 20 71
27 199 127
28 61 132
29 182 54
30 75 133
31 84 38
32 111 102
33 186 21
34 68 36
35 120 87
36 48 94
37 45 18
38 196 68
39 1 139
40 109 34
41 127 61
42 142 64
43 132 10
44 171 175
45 27 138
46 16 179
47 46 28
48 142 148
49 66 39
