tsp_instances/TSP50/instance3.opt.tour
TOUR_SECTION
1
41
6
22
32
18
50
35
14
9
38
48
12
27
37
8
16
46
40
24
47
4
2
13
29
31
7
49
26
45
28
20
10
19
33
36
23
42
17
43
15
11
5
21
39
30
34
25
3
44
-1